(set-logic HORN)
(declare-fun inv ((Array Int Int) (Array Int Int) (Array Int Int) Int Int) Bool)
(declare-fun fail () Bool)
(assert (forall ((a (Array Int Int)) (b (Array Int Int)) (c (Array Int Int)) (n Int))
  (inv a b c 0 n)))
(assert (forall ((c (Array Int Int))
         (i Int)
         (a (Array Int Int))
         (b (Array Int Int))
         (c1 (Array Int Int))
         (i1 Int)
         (n Int))
  (let ((a!1 (= (store c i (+ (select a i) (select b i))) c1)))
    (=> (and (inv a b c i n) (< i n) a!1 (= i1 (+ i 1))) (inv a b c1 i1 n)))))
(assert (forall ((i Int)
         (n Int)
         (a (Array Int Int))
         (b (Array Int Int))
         (c (Array Int Int))
         (i1 Int))
  (let ((a!1 (not (= (+ (select a i1) (select b i1)) (select c i1)))))
    (=> (and (inv a b c i n) (>= i n) (< 0 i1) (< i1 n) a!1) fail))))
(assert (not fail))
(check-sat)
